DIMACS2
80 112 130 243 61 22 152 69 297 29 33 197 300 16 37 128 302 74 39 107 150 317 252 151 169 211 217 312 109 57 44 166 232 62 198 30 53 163 43 157 49 86 70 261 256 227 104 221 140 0 125 38 196 141 19 82 126 3 214 237 200 223 185 75 253 111 260 202 147 146 292 91 262 15 203 155 315 269 291 59 115
p edge 320 2508
e 0 155 21.0
e 0 177 19.0
e 0 291 29.0
e 0 309 15.0
e 0 204 39.0
e 0 218 49.0
e 0 180 41.0
e 0 185 37.0
e 1 144 2.0
e 1 68 1.0
e 1 210 1.0
e 1 152 42.0
e 1 115 2.0
e 1 285 1.0
e 1 176 1.0
e 1 82 13.0
e 2 228 1.0
e 2 133 1.0
e 2 98 1.0
e 2 284 1.0
e 2 281 1.0
e 2 276 1.0
e 2 44 47.0
e 2 16 30.0
e 3 180 32.0
e 3 110 21.0
e 3 138 31.0
e 3 221 49.0
e 3 231 7.0
e 3 290 12.0
e 3 8 16.0
e 3 314 31.0
e 4 32 1.0
e 4 3 19.0
e 4 201 1.0
e 4 146 48.0
e 4 307 1.0
e 4 0 14.0
e 4 70 34.0
e 4 88 1.0
e 5 317 6.0
e 5 171 1.0
e 5 275 1.0
e 5 188 1.0
e 5 51 1.0
e 5 73 1.0
e 5 66 1.0
e 5 16 6.0
e 6 178 1.0
e 6 293 1.0
e 6 283 1.0
e 6 149 1.0
e 6 57 15.0
e 6 260 19.0
e 6 122 1.0
e 6 162 1.0
e 7 15 27.0
e 7 289 1.0
e 7 139 1.0
e 7 198 20.0
e 7 180 1.0
e 7 169 46.0
e 7 64 1.0
e 7 127 1.0
e 8 6 1.0
e 8 192 1.0
e 8 262 29.0
e 8 243 38.0
e 8 202 22.0
e 8 120 1.0
e 8 109 12.0
e 8 47 1.0
e 9 45 1.0
e 9 313 1.0
e 9 159 1.0
e 9 191 1.0
e 9 156 1.0
e 9 315 8.0
e 9 74 48.0
e 9 20 1.0
e 10 312 42.0
e 10 181 1.0
e 10 147 28.0
e 10 62 40.0
e 10 71 1.0
e 10 315 17.0
e 10 207 1.0
e 10 128 13.0
e 11 54 1.0
e 11 163 31.0
e 11 105 1.0
e 11 188 1.0
e 11 302 46.0
e 11 226 1.0
e 11 44 41.0
e 11 154 1.0
e 12 82 27.0
e 12 51 1.0
e 12 44 33.0
e 12 168 1.0
e 12 254 1.0
e 12 39 17.0
e 12 145 1.0
e 12 242 1.0
e 13 106 1.0
e 13 294 1.0
e 13 206 1.0
e 13 113 1.0
e 13 312 11.0
e 13 318 1.0
e 13 22 15.0
e 13 131 1.0
e 14 39 10.0
e 14 76 1.0
e 14 222 1.0
e 14 145 1.0
e 14 173 1.0
e 14 229 1.0
e 14 123 1.0
e 15 143 6.0
e 15 259 21.0
e 15 252 33.0
e 15 76 42.0
e 15 233 20.0
e 15 109 21.0
e 15 28 47.0
e 15 3 24.0
e 16 49 27.0
e 16 149 32.0
e 16 182 4.0
e 16 139 48.0
e 16 36 43.0
e 16 156 37.0
e 16 221 20.0
e 16 134 42.0
e 17 28 1.0
e 17 31 1.0
e 17 240 2.0
e 17 9 1.0
e 17 293 1.0
e 17 64 1.0
e 17 282 1.0
e 17 87 1.0
e 18 13 1.0
e 18 27 1.0
e 18 109 30.0
e 18 74 4.0
e 18 269 44.0
e 18 57 27.0
e 18 88 1.0
e 18 137 1.0
e 19 37 37.0
e 19 218 34.0
e 19 230 4.0
e 19 149 48.0
e 19 128 40.0
e 19 212 4.0
e 19 106 34.0
e 19 27 20.0
e 20 316 1.0
e 20 38 47.0
e 20 127 1.0
e 20 23 1.0
e 20 192 1.0
e 20 165 1.0
e 20 173 1.0
e 20 288 1.0
e 21 46 1.0
e 21 247 1.0
e 21 288 1.0
e 21 145 2.0
e 21 233 1.0
e 21 51 1.0
e 21 218 1.0
e 21 199 2.0
e 22 14 43.0
e 22 82 37.0
e 22 88 23.0
e 22 272 9.0
e 22 57 47.0
e 22 215 10.0
e 22 76 25.0
e 22 162 15.0
e 23 82 46.0
e 23 294 1.0
e 23 227 35.0
e 23 258 1.0
e 23 256 37.0
e 23 62 36.0
e 23 204 1.0
e 23 108 1.0
e 24 57 30.0
e 24 278 1.0
e 24 190 1.0
e 24 141 9.0
e 24 301 1.0
e 24 144 3.0
e 24 225 1.0
e 24 43 40.0
e 25 131 1.0
e 25 312 30.0
e 25 97 1.0
e 25 138 1.0
e 25 106 1.0
e 25 22 8.0
e 25 62 34.0
e 25 166 8.0
e 26 299 2.0
e 26 235 1.0
e 26 211 16.0
e 26 204 1.0
e 26 253 42.0
e 26 255 1.0
e 26 170 1.0
e 26 308 1.0
e 27 3 23.0
e 27 311 1.0
e 27 1 1.0
e 27 100 1.0
e 27 70 23.0
e 27 38 29.0
e 27 122 1.0
e 27 219 1.0
e 28 223 37.0
e 28 167 1.0
e 28 35 1.0
e 28 238 1.0
e 28 214 8.0
e 28 278 1.0
e 28 115 3.0
e 28 252 49.0
e 29 276 17.0
e 29 298 12.0
e 29 45 26.0
e 29 182 47.0
e 29 44 30.0
e 29 57 11.0
e 29 104 29.0
e 29 185 39.0
e 30 24 7.0
e 30 311 6.0
e 30 170 35.0
e 30 125 33.0
e 30 40 40.0
e 30 65 47.0
e 30 168 17.0
e 30 85 46.0
e 31 95 1.0
e 31 231 1.0
e 31 6 1.0
e 31 193 1.0
e 31 42 1.0
e 31 112 41.0
e 31 152 13.0
e 31 147 22.0
e 32 53 37.0
e 32 79 1.0
e 32 296 1.0
e 32 161 1.0
e 32 27 1.0
e 32 42 1.0
e 32 22 33.0
e 32 172 1.0
e 33 191 32.0
e 33 176 39.0
e 33 307 2.0
e 33 132 28.0
e 33 197 36.0
e 33 219 41.0
e 33 23 31.0
e 33 135 26.0
e 34 294 1.0
e 34 270 1.0
e 34 134 1.0
e 34 147 16.0
e 34 30 41.0
e 34 183 1.0
e 34 105 1.0
e 34 230 1.0
e 35 92 1.0
e 35 94 1.0
e 35 128 27.0
e 35 251 1.0
e 35 230 1.0
e 35 188 1.0
e 35 122 1.0
e 35 253 20.0
e 36 33 24.0
e 36 267 1.0
e 36 314 1.0
e 36 71 1.0
e 36 231 1.0
e 36 140 13.0
e 36 275 1.0
e 37 250 22.0
e 37 263 44.0
e 37 32 8.0
e 37 148 8.0
e 37 77 20.0
e 37 233 11.0
e 37 120 13.0
e 37 85 34.0
e 38 245 48.0
e 38 160 33.0
e 38 201 4.0
e 38 71 23.0
e 38 281 10.0
e 38 14 7.0
e 38 85 31.0
e 39 126 7.0
e 39 312 20.0
e 39 304 40.0
e 39 29 12.0
e 39 309 12.0
e 39 256 15.0
e 39 74 46.0
e 39 112 44.0
e 40 263 2.0
e 40 132 1.0
e 40 289 1.0
e 40 248 2.0
e 40 85 1.0
e 40 188 2.0
e 40 286 1.0
e 40 10 2.0
e 41 163 42.0
e 41 72 1.0
e 41 202 1.0
e 41 151 6.0
e 41 275 1.0
e 41 265 1.0
e 41 12 1.0
e 41 50 1.0
e 42 7 1.0
e 42 56 1.0
e 42 65 1.0
e 42 302 43.0
e 42 241 1.0
e 42 153 1.0
e 42 112 9.0
e 42 179 1.0
e 43 316 40.0
e 43 35 20.0
e 43 124 3.0
e 43 165 30.0
e 43 280 28.0
e 43 221 4.0
e 43 119 17.0
e 43 16 17.0
e 44 181 29.0
e 44 318 16.0
e 44 317 2.0
e 44 204 33.0
e 44 233 27.0
e 44 1 24.0
e 44 224 40.0
e 45 162 1.0
e 45 17 1.0
e 45 225 1.0
e 45 191 1.0
e 45 177 1.0
e 45 41 1.0
e 45 294 1.0
e 45 4 1.0
e 46 168 1.0
e 46 276 1.0
e 46 264 1.0
e 46 217 28.0
e 46 78 1.0
e 46 56 1.0
e 46 128 48.0
e 46 51 1.0
e 47 100 1.0
e 47 249 1.0
e 47 115 26.0
e 47 39 17.0
e 47 311 1.0
e 47 273 1.0
e 47 213 1.0
e 47 18 1.0
e 48 288 1.0
e 48 292 4.0
e 48 42 1.0
e 48 295 1.0
e 48 279 1.0
e 48 9 1.0
e 48 143 1.0
e 48 206 2.0
e 49 11 30.0
e 49 244 46.0
e 49 17 48.0
e 49 72 48.0
e 49 86 26.0
e 49 117 38.0
e 49 81 9.0
e 49 206 45.0
e 50 71 1.0
e 50 116 1.0
e 50 122 1.0
e 50 79 1.0
e 50 30 26.0
e 50 263 1.0
e 50 317 18.0
e 50 312 18.0
e 51 252 27.0
e 51 150 30.0
e 51 305 2.0
e 51 96 1.0
e 51 78 1.0
e 51 216 1.0
e 51 82 19.0
e 51 244 1.0
e 52 313 2.0
e 52 15 29.0
e 52 203 14.0
e 52 225 1.0
e 52 56 1.0
e 52 140 37.0
e 52 80 1.0
e 52 131 1.0
e 53 235 17.0
e 53 290 40.0
e 53 294 33.0
e 53 199 22.0
e 53 147 43.0
e 53 110 37.0
e 53 60 10.0
e 53 87 1.0
e 54 160 1.0
e 54 27 1.0
e 54 167 1.0
e 54 184 1.0
e 54 316 1.0
e 54 166 5.0
e 54 134 1.0
e 54 154 1.0
e 55 274 1.0
e 55 277 1.0
e 55 145 1.0
e 55 141 24.0
e 55 2 1.0
e 55 285 1.0
e 55 226 1.0
e 55 150 1.0
e 56 271 1.0
e 56 185 43.0
e 56 1 1.0
e 56 21 2.0
e 56 240 1.0
e 56 215 1.0
e 56 133 1.0
e 56 266 1.0
e 57 82 15.0
e 57 241 39.0
e 57 38 23.0
e 57 73 3.0
e 57 218 11.0
e 57 159 43.0
e 57 142 39.0
e 57 99 19.0
e 58 268 1.0
e 58 99 1.0
e 58 166 1.0
e 58 133 1.0
e 58 79 1.0
e 58 315 10.0
e 58 292 21.0
e 58 171 1.0
e 59 72 2.0
e 59 306 38.0
e 59 172 20.0
e 59 276 25.0
e 59 288 43.0
e 59 165 14.0
e 59 201 13.0
e 59 195 29.0
e 60 62 14.0
e 60 305 1.0
e 60 81 1.0
e 60 246 2.0
e 60 170 1.0
e 60 303 2.0
e 60 115 2.0
e 60 139 1.0
e 61 287 3.0
e 61 151 39.0
e 61 173 39.0
e 61 157 40.0
e 61 147 28.0
e 61 176 35.0
e 61 82 38.0
e 61 216 12.0
e 62 158 30.0
e 62 58 48.0
e 62 35 10.0
e 62 263 28.0
e 62 99 18.0
e 62 198 27.0
e 62 253 46.0
e 62 206 41.0
e 63 90 1.0
e 63 285 1.0
e 63 49 19.0
e 63 253 18.0
e 63 259 1.0
e 63 48 1.0
e 63 13 1.0
e 63 123 1.0
e 64 35 1.0
e 64 309 1.0
e 64 171 1.0
e 64 225 1.0
e 64 196 13.0
e 64 189 1.0
e 64 67 1.0
e 64 157 23.0
e 65 301 1.0
e 65 215 1.0
e 65 146 40.0
e 65 1 1.0
e 65 9 1.0
e 65 2 1.0
e 65 121 1.0
e 65 19 39.0
e 66 54 1.0
e 66 252 7.0
e 66 239 1.0
e 66 73 1.0
e 66 311 1.0
e 66 214 16.0
e 66 50 1.0
e 66 160 1.0
e 67 296 1.0
e 67 68 1.0
e 67 251 1.0
e 67 193 1.0
e 67 293 1.0
e 67 197 24.0
e 67 51 1.0
e 67 98 1.0
e 68 131 1.0
e 68 22 7.0
e 68 98 1.0
e 68 75 31.0
e 68 188 1.0
e 68 243 27.0
e 68 18 1.0
e 68 102 1.0
e 69 27 4.0
e 69 77 11.0
e 69 74 46.0
e 69 42 5.0
e 69 145 35.0
e 69 106 21.0
e 69 120 36.0
e 69 104 32.0
e 70 14 20.0
e 70 126 8.0
e 70 200 29.0
e 70 196 37.0
e 70 314 42.0
e 70 20 8.0
e 70 297 35.0
e 71 295 1.0
e 71 163 12.0
e 71 221 41.0
e 71 168 1.0
e 71 100 1.0
e 71 108 1.0
e 71 205 1.0
e 71 28 1.0
e 72 290 1.0
e 72 255 1.0
e 72 115 13.0
e 72 65 1.0
e 72 106 1.0
e 72 123 1.0
e 72 116 1.0
e 72 174 1.0
e 73 173 1.0
e 73 148 1.0
e 73 183 1.0
e 73 115 1.0
e 73 86 22.0
e 73 117 1.0
e 73 105 1.0
e 73 185 19.0
e 74 25 29.0
e 74 316 34.0
e 74 121 3.0
e 74 221 45.0
e 74 119 25.0
e 74 137 21.0
e 74 154 13.0
e 74 251 38.0
e 75 104 34.0
e 75 226 35.0
e 75 93 41.0
e 75 162 6.0
e 75 33 22.0
e 75 17 9.0
e 75 183 37.0
e 75 54 13.0
e 76 56 1.0
e 76 144 2.0
e 76 112 28.0
e 76 66 1.0
e 76 197 7.0
e 76 162 1.0
e 76 201 1.0
e 76 80 1.0
e 77 61 1.0
e 77 32 1.0
e 77 146 28.0
e 77 122 1.0
e 77 47 1.0
e 77 19 28.0
e 77 158 1.0
e 77 116 1.0
e 78 246 1.0
e 78 229 1.0
e 78 193 1.0
e 78 62 8.0
e 78 182 1.0
e 78 132 1.0
e 78 133 1.0
e 78 209 1.0
e 79 28 1.0
e 79 161 1.0
e 79 33 24.0
e 79 284 1.0
e 79 143 1.0
e 79 67 1.0
e 79 182 1.0
e 79 283 1.0
e 80 227 34.0
e 80 69 11.0
e 80 130 20.0
e 80 266 1.0
e 80 58 1.0
e 80 167 1.0
e 80 200 7.0
e 80 258 1.0
e 81 50 1.0
e 81 257 1.0
e 81 302 48.0
e 81 92 1.0
e 81 230 1.0
e 81 244 1.0
e 81 16 1.0
e 81 52 1.0
e 82 39 47.0
e 82 199 7.0
e 82 24 22.0
e 82 127 33.0
e 82 262 20.0
e 82 45 11.0
e 82 19 30.0
e 82 241 48.0
e 83 123 1.0
e 83 32 1.0
e 83 179 1.0
e 83 217 45.0
e 83 211 38.0
e 83 39 7.0
e 83 190 1.0
e 83 302 17.0
e 84 66 3.0
e 84 263 1.0
e 84 225 1.0
e 84 108 1.0
e 84 63 3.0
e 84 253 10.0
e 84 170 1.0
e 85 212 1.0
e 85 255 1.0
e 85 9 1.0
e 85 53 26.0
e 85 263 1.0
e 85 182 1.0
e 85 239 1.0
e 85 25 1.0
e 86 220 25.0
e 86 297 31.0
e 86 119 30.0
e 86 72 24.0
e 86 259 27.0
e 86 114 18.0
e 86 273 5.0
e 86 108 29.0
e 87 168 1.0
e 87 129 1.0
e 87 4 1.0
e 87 263 1.0
e 87 100 1.0
e 87 226 1.0
e 87 310 1.0
e 87 179 1.0
e 88 277 1.0
e 88 15 28.0
e 88 123 1.0
e 88 37 49.0
e 88 209 1.0
e 88 64 1.0
e 88 195 1.0
e 88 26 1.0
e 89 237 3.0
e 89 280 1.0
e 89 107 38.0
e 89 26 1.0
e 89 65 1.0
e 89 35 1.0
e 89 14 1.0
e 89 142 1.0
e 90 305 1.0
e 90 203 44.0
e 90 92 1.0
e 90 49 22.0
e 90 274 1.0
e 90 221 5.0
e 90 89 1.0
e 90 313 1.0
e 91 53 11.0
e 91 166 45.0
e 91 187 32.0
e 91 157 18.0
e 91 133 15.0
e 91 242 28.0
e 91 226 45.0
e 91 278 37.0
e 92 281 1.0
e 92 233 1.0
e 92 140 15.0
e 92 41 1.0
e 92 274 1.0
e 92 28 1.0
e 92 245 1.0
e 92 97 1.0
e 93 158 1.0
e 93 120 1.0
e 93 175 1.0
e 93 77 1.0
e 93 303 2.0
e 93 249 1.0
e 93 150 35.0
e 93 202 23.0
e 94 222 1.0
e 94 96 1.0
e 94 87 1.0
e 94 123 1.0
e 94 101 1.0
e 94 138 1.0
e 94 117 1.0
e 95 50 1.0
e 95 20 1.0
e 95 198 46.0
e 95 223 33.0
e 95 274 1.0
e 95 9 1.0
e 95 226 1.0
e 95 230 1.0
e 96 177 1.0
e 96 83 1.0
e 96 91 42.0
e 96 6 1.0
e 96 159 1.0
e 96 263 1.0
e 96 104 47.0
e 96 269 43.0
e 97 283 1.0
e 97 241 1.0
e 97 221 13.0
e 97 235 1.0
e 97 252 3.0
e 97 163 7.0
e 97 249 1.0
e 98 213 1.0
e 98 54 1.0
e 98 203 6.0
e 98 171 1.0
e 98 307 1.0
e 98 81 1.0
e 98 175 2.0
e 98 82 22.0
e 99 219 1.0
e 99 132 1.0
e 99 191 1.0
e 99 186 1.0
e 99 316 1.0
e 99 181 1.0
e 99 193 1.0
e 99 109 22.0
e 100 305 2.0
e 100 101 1.0
e 100 97 1.0
e 100 25 1.0
e 100 51 1.0
e 100 236 2.0
e 100 208 1.0
e 100 62 25.0
e 101 147 17.0
e 101 162 1.0
e 101 37 13.0
e 101 76 1.0
e 101 228 1.0
e 101 47 1.0
e 101 63 1.0
e 101 225 1.0
e 102 220 1.0
e 102 256 23.0
e 102 56 1.0
e 102 163 32.0
e 102 311 1.0
e 102 275 1.0
e 102 101 1.0
e 103 118 1.0
e 103 44 37.0
e 103 2 1.0
e 103 41 1.0
e 103 79 1.0
e 103 276 1.0
e 103 136 1.0
e 103 189 1.0
e 104 112 10.0
e 104 25 23.0
e 104 258 49.0
e 104 124 3.0
e 104 14 18.0
e 104 6 25.0
e 104 269 4.0
e 104 61 36.0
e 105 8 1.0
e 105 210 1.0
e 105 185 2.0
e 105 157 19.0
e 105 252 16.0
e 105 292 15.0
e 105 255 1.0
e 105 102 1.0
e 106 23 1.0
e 106 157 25.0
e 106 210 1.0
e 106 195 1.0
e 106 151 44.0
e 106 9 1.0
e 106 46 1.0
e 106 215 1.0
e 107 214 4.0
e 107 62 2.0
e 107 52 6.0
e 107 269 13.0
e 107 136 2.0
e 107 152 21.0
e 107 252 16.0
e 107 167 18.0
e 108 4 1.0
e 108 74 37.0
e 108 50 1.0
e 108 180 1.0
e 108 129 1.0
e 108 1 1.0
e 108 172 1.0
e 108 96 1.0
e 109 133 46.0
e 109 293 37.0
e 109 290 15.0
e 109 272 29.0
e 109 136 31.0
e 109 59 46.0
e 109 7 27.0
e 109 298 44.0
e 110 197 5.0
e 110 51 1.0
e 110 115 27.0
e 110 289 1.0
e 110 182 1.0
e 110 96 1.0
e 110 41 1.0
e 110 80 1.0
e 111 161 29.0
e 111 63 33.0
e 111 179 31.0
e 111 163 12.0
e 111 293 40.0
e 111 71 9.0
e 111 227 40.0
e 111 70 7.0
e 112 212 18.0
e 112 215 28.0
e 112 243 5.0
e 112 41 2.0
e 112 137 40.0
e 112 61 8.0
e 112 201 25.0
e 112 66 13.0
e 113 216 1.0
e 113 93 1.0
e 113 50 1.0
e 113 277 1.0
e 113 262 28.0
e 113 109 38.0
e 113 299 1.0
e 113 140 20.0
e 114 227 9.0
e 114 265 1.0
e 114 187 1.0
e 114 179 1.0
e 114 193 1.0
e 114 71 1.0
e 114 162 1.0
e 114 192 1.0
e 115 311 21.0
e 115 286 22.0
e 115 282 43.0
e 115 96 18.0
e 115 216 29.0
e 115 296 33.0
e 115 275 35.0
e 115 171 40.0
e 116 42 1.0
e 116 238 1.0
e 116 150 23.0
e 116 24 1.0
e 116 292 18.0
e 116 223 27.0
e 116 171 1.0
e 116 244 1.0
e 117 19 43.0
e 117 254 1.0
e 117 313 2.0
e 117 114 1.0
e 117 220 1.0
e 117 267 1.0
e 117 107 11.0
e 118 71 1.0
e 118 280 1.0
e 118 194 2.0
e 118 93 1.0
e 118 50 1.0
e 118 235 1.0
e 118 80 1.0
e 118 119 1.0
e 119 280 1.0
e 119 39 26.0
e 119 221 17.0
e 119 151 34.0
e 119 57 29.0
e 119 294 1.0
e 119 2 1.0
e 119 234 2.0
e 120 299 1.0
e 120 144 1.0
e 120 45 1.0
e 120 154 2.0
e 120 200 25.0
e 120 95 1.0
e 120 308 1.0
e 121 177 1.0
e 121 128 14.0
e 121 231 1.0
e 121 52 1.0
e 121 54 1.0
e 121 239 1.0
e 121 171 1.0
e 121 32 1.0
e 122 210 1.0
e 122 218 1.0
e 122 192 1.0
e 122 123 1.0
e 122 173 1.0
e 122 58 1.0
e 122 282 1.0
e 122 191 1.0
e 123 127 1.0
e 123 135 1.0
e 123 85 1.0
e 123 26 1.0
e 123 62 36.0
e 123 43 16.0
e 123 259 1.0
e 123 199 1.0
e 124 225 1.0
e 124 196 33.0
e 124 238 1.0
e 124 98 1.0
e 124 172 1.0
e 124 228 1.0
e 124 89 1.0
e 124 198 28.0
e 125 169 17.0
e 125 5 30.0
e 125 72 35.0
e 125 244 44.0
e 125 220 19.0
e 125 204 12.0
e 125 194 10.0
e 126 113 15.0
e 126 135 15.0
e 126 248 4.0
e 126 99 12.0
e 126 110 37.0
e 126 0 29.0
e 126 5 33.0
e 126 71 12.0
e 127 136 1.0
e 127 248 1.0
e 127 95 1.0
e 127 94 2.0
e 127 165 1.0
e 127 240 1.0
e 127 173 1.0
e 127 247 1.0
e 128 33 18.0
e 128 237 11.0
e 128 140 5.0
e 128 179 15.0
e 128 72 6.0
e 128 180 13.0
e 128 66 41.0
e 128 253 43.0
e 129 243 8.0
e 129 140 41.0
e 129 86 1.0
e 129 33 39.0
e 129 310 1.0
e 129 257 1.0
e 129 65 1.0
e 130 317 30.0
e 130 158 37.0
e 130 136 47.0
e 130 191 1.0
e 130 238 27.0
e 130 316 47.0
e 130 277 29.0
e 130 97 32.0
e 131 93 1.0
e 131 149 1.0
e 131 237 21.0
e 131 49 34.0
e 131 150 48.0
e 131 282 1.0
e 131 155 28.0
e 131 48 2.0
e 132 82 49.0
e 132 154 1.0
e 132 170 1.0
e 132 117 1.0
e 132 239 1.0
e 132 138 1.0
e 133 21 1.0
e 133 193 1.0
e 133 164 1.0
e 133 128 38.0
e 133 8 1.0
e 133 261 18.0
e 133 252 33.0
e 133 242 1.0
e 134 204 1.0
e 134 151 12.0
e 134 131 1.0
e 134 76 1.0
e 134 163 29.0
e 134 104 29.0
e 134 285 1.0
e 134 254 1.0
e 135 64 1.0
e 135 283 1.0
e 135 162 1.0
e 135 203 19.0
e 135 223 9.0
e 135 297 21.0
e 135 49 37.0
e 136 224 1.0
e 136 271 1.0
e 136 59 3.0
e 136 253 7.0
e 136 239 1.0
e 136 65 1.0
e 136 68 1.0
e 136 313 1.0
e 137 81 1.0
e 137 221 19.0
e 137 160 1.0
e 137 175 1.0
e 137 225 1.0
e 137 228 1.0
e 137 149 1.0
e 137 135 1.0
e 138 260 10.0
e 138 118 1.0
e 138 215 1.0
e 138 222 1.0
e 138 252 32.0
e 138 241 1.0
e 138 312 46.0
e 138 204 1.0
e 139 223 10.0
e 139 34 1.0
e 139 309 1.0
e 139 144 2.0
e 139 51 1.0
e 139 195 1.0
e 139 74 6.0
e 139 148 1.0
e 140 160 42.0
e 140 209 12.0
e 140 89 8.0
e 140 182 22.0
e 140 75 5.0
e 140 199 25.0
e 140 37 35.0
e 140 242 49.0
e 141 210 29.0
e 141 111 10.0
e 141 230 39.0
e 141 46 9.0
e 141 184 10.0
e 141 87 22.0
e 141 124 8.0
e 141 125 2.0
e 142 224 1.0
e 142 227 25.0
e 142 150 49.0
e 142 90 1.0
e 142 64 1.0
e 142 131 1.0
e 142 268 1.0
e 142 77 1.0
e 143 33 44.0
e 143 302 39.0
e 143 40 2.0
e 143 37 4.0
e 143 1 1.0
e 143 119 1.0
e 143 80 1.0
e 143 57 10.0
e 144 222 1.0
e 144 7 2.0
e 144 267 1.0
e 144 109 3.0
e 144 27 1.0
e 144 66 1.0
e 144 238 1.0
e 144 25 2.0
e 145 211 42.0
e 145 28 1.0
e 145 136 1.0
e 145 294 1.0
e 145 283 1.0
e 145 180 1.0
e 145 204 1.0
e 145 17 1.0
e 146 201 32.0
e 146 79 17.0
e 146 143 24.0
e 146 152 33.0
e 146 85 22.0
e 146 161 44.0
e 146 257 14.0
e 146 233 47.0
e 147 238 8.0
e 147 96 42.0
e 147 280 30.0
e 147 202 36.0
e 147 289 36.0
e 147 13 14.0
e 147 159 42.0
e 147 182 33.0
e 148 278 1.0
e 148 20 1.0
e 148 164 1.0
e 148 256 40.0
e 148 297 39.0
e 148 6 1.0
e 148 249 1.0
e 148 279 1.0
e 149 304 1.0
e 149 285 1.0
e 149 269 35.0
e 149 51 1.0
e 149 197 42.0
e 149 37 39.0
e 149 225 1.0
e 149 299 1.0
e 150 216 8.0
e 150 50 21.0
e 150 95 25.0
e 150 138 9.0
e 150 184 5.0
e 150 213 32.0
e 150 279 42.0
e 151 129 49.0
e 151 60 47.0
e 151 26 36.0
e 151 18 13.0
e 151 183 14.0
e 151 243 44.0
e 151 20 35.0
e 151 241 47.0
e 152 109 49.0
e 152 215 11.0
e 152 222 34.0
e 152 306 29.0
e 152 235 14.0
e 152 282 47.0
e 152 141 10.0
e 152 270 13.0
e 153 12 1.0
e 153 133 1.0
e 153 75 9.0
e 153 167 1.0
e 153 65 1.0
e 153 70 8.0
e 153 20 1.0
e 153 260 13.0
e 154 298 1.0
e 154 248 2.0
e 154 167 1.0
e 154 272 1.0
e 154 73 2.0
e 154 160 1.0
e 155 6 8.0
e 155 203 28.0
e 155 61 3.0
e 155 129 34.0
e 155 230 18.0
e 155 201 13.0
e 155 166 39.0
e 155 288 24.0
e 156 309 1.0
e 156 151 3.0
e 156 312 20.0
e 156 186 1.0
e 156 105 1.0
e 156 53 41.0
e 156 135 1.0
e 156 194 1.0
e 157 271 12.0
e 157 12 28.0
e 157 87 34.0
e 157 29 29.0
e 157 108 3.0
e 157 283 20.0
e 157 309 17.0
e 157 51 25.0
e 158 276 1.0
e 158 144 1.0
e 158 244 1.0
e 158 60 1.0
e 158 154 1.0
e 158 81 1.0
e 158 275 1.0
e 158 204 1.0
e 159 249 1.0
e 159 59 7.0
e 159 293 1.0
e 159 310 1.0
e 159 292 12.0
e 159 124 1.0
e 159 235 1.0
e 159 83 1.0
e 160 254 1.0
e 160 56 1.0
e 160 260 48.0
e 160 269 5.0
e 160 74 24.0
e 160 29 30.0
e 160 107 42.0
e 160 233 1.0
e 161 101 1.0
e 161 8 1.0
e 161 49 4.0
e 161 205 1.0
e 161 4 1.0
e 161 105 1.0
e 161 262 18.0
e 161 222 1.0
e 162 37 38.0
e 162 99 1.0
e 162 170 1.0
e 162 164 1.0
e 162 158 1.0
e 162 295 1.0
e 162 233 1.0
e 162 315 34.0
e 163 189 46.0
e 163 25 33.0
e 163 274 44.0
e 163 150 28.0
e 163 232 26.0
e 163 32 24.0
e 163 67 8.0
e 164 152 2.0
e 164 66 1.0
e 164 44 10.0
e 164 34 1.0
e 164 249 1.0
e 164 169 20.0
e 164 63 1.0
e 164 132 1.0
e 165 174 1.0
e 165 147 13.0
e 165 104 16.0
e 165 295 1.0
e 165 51 1.0
e 165 173 1.0
e 165 210 1.0
e 165 171 1.0
e 166 52 48.0
e 166 126 48.0
e 166 27 34.0
e 166 148 23.0
e 166 11 25.0
e 166 41 8.0
e 166 188 46.0
e 167 159 1.0
e 167 297 14.0
e 167 127 1.0
e 167 4 1.0
e 167 203 39.0
e 167 65 1.0
e 167 146 46.0
e 167 162 1.0
e 168 126 28.0
e 168 122 1.0
e 168 11 1.0
e 168 288 1.0
e 168 106 1.0
e 168 24 1.0
e 168 100 1.0
e 168 266 1.0
e 169 83 24.0
e 169 174 43.0
e 169 244 31.0
e 169 228 13.0
e 169 44 10.0
e 169 180 40.0
e 169 94 26.0
e 170 156 1.0
e 170 276 1.0
e 170 172 1.0
e 170 144 1.0
e 170 283 1.0
e 170 77 1.0
e 170 94 1.0
e 170 260 8.0
e 171 280 1.0
e 171 77 1.0
e 171 238 1.0
e 171 199 1.0
e 171 109 30.0
e 171 153 1.0
e 171 82 39.0
e 172 31 1.0
e 172 142 1.0
e 172 98 1.0
e 172 317 11.0
e 172 165 1.0
e 172 198 41.0
e 172 163 21.0
e 172 40 1.0
e 173 77 1.0
e 173 219 1.0
e 173 275 1.0
e 173 58 1.0
e 173 295 1.0
e 173 9 1.0
e 173 153 1.0
e 173 17 1.0
e 174 86 13.0
e 174 228 1.0
e 174 277 1.0
e 174 224 1.0
e 174 271 1.0
e 174 81 1.0
e 174 265 1.0
e 174 42 1.0
e 175 193 1.0
e 175 11 2.0
e 175 163 8.0
e 175 307 1.0
e 175 77 2.0
e 175 119 1.0
e 175 266 2.0
e 175 92 1.0
e 176 24 1.0
e 176 208 1.0
e 176 152 29.0
e 176 218 1.0
e 176 171 1.0
e 176 119 1.0
e 176 261 3.0
e 176 213 1.0
e 177 207 1.0
e 177 88 1.0
e 177 92 1.0
e 177 244 1.0
e 177 38 27.0
e 177 236 2.0
e 177 303 2.0
e 177 3 15.0
e 178 7 1.0
e 178 113 1.0
e 178 287 1.0
e 178 261 31.0
e 178 8 1.0
e 178 73 1.0
e 178 29 46.0
e 178 190 1.0
e 179 213 1.0
e 179 132 1.0
e 179 261 46.0
e 179 78 1.0
e 179 81 1.0
e 179 186 1.0
e 179 88 1.0
e 179 96 1.0
e 180 155 33.0
e 180 287 1.0
e 180 308 1.0
e 180 275 1.0
e 180 282 1.0
e 180 299 1.0
e 180 237 40.0
e 180 102 1.0
e 181 120 1.0
e 181 228 1.0
e 181 216 1.0
e 181 171 1.0
e 181 304 1.0
e 181 194 1.0
e 182 61 16.0
e 182 285 1.0
e 182 272 1.0
e 182 189 1.0
e 182 256 3.0
e 182 43 22.0
e 182 268 1.0
e 182 52 1.0
e 183 224 1.0
e 183 274 1.0
e 183 186 1.0
e 183 9 1.0
e 183 53 8.0
e 183 7 1.0
e 183 79 1.0
e 183 176 1.0
e 184 300 42.0
e 184 173 1.0
e 184 18 1.0
e 184 192 1.0
e 184 235 1.0
e 184 129 1.0
e 184 315 12.0
e 185 298 2.0
e 185 204 14.0
e 185 57 14.0
e 185 70 10.0
e 185 110 43.0
e 185 274 10.0
e 185 2 29.0
e 185 231 8.0
e 186 88 1.0
e 186 40 1.0
e 186 266 1.0
e 186 4 1.0
e 186 244 1.0
e 186 298 1.0
e 186 126 30.0
e 186 73 1.0
e 187 11 1.0
e 187 129 1.0
e 187 218 1.0
e 187 44 49.0
e 187 93 1.0
e 187 224 1.0
e 187 286 1.0
e 187 265 1.0
e 188 67 1.0
e 188 33 2.0
e 188 14 1.0
e 188 61 27.0
e 188 145 1.0
e 188 221 32.0
e 188 287 1.0
e 188 34 1.0
e 189 231 1.0
e 189 136 1.0
e 189 7 1.0
e 189 35 1.0
e 189 288 1.0
e 189 72 1.0
e 189 97 1.0
e 189 212 1.0
e 190 280 1.0
e 190 297 18.0
e 190 256 14.0
e 190 192 1.0
e 190 193 1.0
e 190 49 30.0
e 190 278 1.0
e 190 260 10.0
e 191 303 2.0
e 191 306 1.0
e 191 307 1.0
e 191 79 1.0
e 191 223 16.0
e 191 200 11.0
e 191 246 1.0
e 191 299 2.0
e 192 5 1.0
e 192 6 1.0
e 192 55 2.0
e 192 230 1.0
e 192 244 3.0
e 192 174 2.0
e 192 162 2.0
e 192 53 8.0
e 193 46 1.0
e 193 183 1.0
e 193 39 29.0
e 193 186 1.0
e 193 220 1.0
e 193 264 1.0
e 193 53 21.0
e 193 257 1.0
e 194 225 1.0
e 194 206 1.0
e 194 60 1.0
e 194 305 1.0
e 194 245 1.0
e 194 233 1.0
e 195 252 18.0
e 195 55 1.0
e 195 243 8.0
e 195 266 1.0
e 195 245 1.0
e 195 202 22.0
e 195 165 1.0
e 195 103 1.0
e 196 14 43.0
e 196 78 37.0
e 196 134 22.0
e 196 21 9.0
e 196 114 36.0
e 196 46 29.0
e 196 60 33.0
e 196 38 47.0
e 197 248 49.0
e 197 101 12.0
e 197 136 46.0
e 197 180 35.0
e 197 44 9.0
e 197 275 8.0
e 197 66 30.0
e 197 56 12.0
e 198 18 22.0
e 198 174 34.0
e 198 12 38.0
e 198 181 25.0
e 198 205 17.0
e 198 150 40.0
e 198 47 14.0
e 198 273 40.0
e 199 314 1.0
e 199 229 1.0
e 199 208 1.0
e 199 257 1.0
e 199 66 1.0
e 199 86 24.0
e 199 215 1.0
e 199 38 31.0
e 200 113 43.0
e 200 296 15.0
e 200 228 37.0
e 200 261 48.0
e 200 276 26.0
e 200 317 20.0
e 200 52 21.0
e 200 50 17.0
e 201 123 1.0
e 201 161 1.0
e 201 26 1.0
e 201 108 1.0
e 201 69 36.0
e 201 250 1.0
e 201 82 24.0
e 202 312 48.0
e 202 201 46.0
e 202 132 44.0
e 202 227 49.0
e 202 245 19.0
e 202 160 22.0
e 202 157 21.0
e 202 15 46.0
e 203 172 40.0
e 203 54 29.0
e 203 5 46.0
e 203 176 17.0
e 203 58 25.0
e 203 285 40.0
e 203 177 37.0
e 203 32 24.0
e 204 140 18.0
e 204 191 1.0
e 204 224 1.0
e 204 171 1.0
e 204 180 1.0
e 204 275 1.0
e 204 132 1.0
e 205 4 1.0
e 205 114 1.0
e 205 277 1.0
e 205 83 1.0
e 205 59 9.0
e 205 213 1.0
e 205 54 1.0
e 205 127 1.0
e 206 86 49.0
e 206 173 1.0
e 206 315 42.0
e 206 259 1.0
e 206 175 2.0
e 206 306 1.0
e 206 31 1.0
e 206 180 1.0
e 207 251 1.0
e 207 299 2.0
e 207 157 20.0
e 207 295 1.0
e 207 279 1.0
e 207 59 33.0
e 207 162 1.0
e 207 39 42.0
e 208 191 1.0
e 208 238 1.0
e 208 85 1.0
e 208 219 1.0
e 208 141 8.0
e 208 209 1.0
e 208 218 1.0
e 209 73 1.0
e 209 181 1.0
e 209 161 1.0
e 209 8 1.0
e 209 149 1.0
e 209 202 11.0
e 209 104 45.0
e 209 165 1.0
e 210 38 40.0
e 210 133 1.0
e 210 80 1.0
e 210 155 31.0
e 210 9 1.0
e 210 114 1.0
e 210 186 1.0
e 210 121 1.0
e 211 100 47.0
e 211 265 35.0
e 211 191 7.0
e 211 13 17.0
e 211 245 38.0
e 211 281 26.0
e 211 221 49.0
e 211 124 17.0
e 212 306 1.0
e 212 293 1.0
e 212 80 1.0
e 212 62 39.0
e 212 123 1.0
e 212 299 1.0
e 212 114 1.0
e 213 142 1.0
e 213 285 1.0
e 213 72 1.0
e 213 140 43.0
e 213 51 1.0
e 213 144 1.0
e 213 207 1.0
e 214 64 11.0
e 214 181 40.0
e 214 186 10.0
e 214 69 1.0
e 214 81 18.0
e 214 262 39.0
e 214 18 16.0
e 214 134 31.0
e 215 100 1.0
e 215 191 1.0
e 215 212 1.0
e 215 136 1.0
e 215 251 1.0
e 215 288 1.0
e 215 177 1.0
e 216 72 1.0
e 216 86 21.0
e 216 110 1.0
e 216 108 1.0
e 216 87 1.0
e 216 148 1.0
e 216 135 1.0
e 216 19 9.0
e 217 240 18.0
e 217 47 6.0
e 217 277 23.0
e 217 3 25.0
e 217 54 35.0
e 217 236 25.0
e 217 60 44.0
e 217 203 46.0
e 218 87 1.0
e 218 69 38.0
e 218 29 42.0
e 218 231 1.0
e 218 149 1.0
e 218 230 1.0
e 218 152 13.0
e 218 255 1.0
e 219 230 1.0
e 219 36 1.0
e 219 13 1.0
e 219 98 1.0
e 219 84 1.0
e 219 102 1.0
e 219 149 1.0
e 219 301 1.0
e 220 111 27.0
e 220 136 1.0
e 220 114 1.0
e 220 190 1.0
e 220 64 1.0
e 220 283 1.0
e 220 2 1.0
e 220 121 1.0
e 221 101 22.0
e 221 39 1.0
e 221 271 8.0
e 221 187 28.0
e 221 272 7.0
e 221 86 28.0
e 221 196 2.0
e 221 318 49.0
e 222 156 1.0
e 222 274 1.0
e 222 10 1.0
e 222 268 1.0
e 222 164 1.0
e 222 145 1.0
e 222 125 18.0
e 223 168 49.0
e 223 239 32.0
e 223 5 21.0
e 223 125 47.0
e 223 136 48.0
e 223 177 1.0
e 223 252 34.0
e 223 99 3.0
e 224 92 1.0
e 224 128 28.0
e 224 168 1.0
e 224 26 1.0
e 224 166 1.0
e 224 296 1.0
e 224 103 1.0
e 224 96 1.0
e 225 86 7.0
e 225 54 1.0
e 225 102 1.0
e 225 313 1.0
e 225 235 1.0
e 225 39 26.0
e 225 302 26.0
e 225 66 1.0
e 226 80 1.0
e 226 240 1.0
e 226 164 1.0
e 226 42 1.0
e 226 62 23.0
e 226 140 41.0
e 226 263 1.0
e 226 150 1.0
e 227 177 8.0
e 227 239 16.0
e 227 193 45.0
e 227 65 20.0
e 227 103 39.0
e 227 298 18.0
e 227 51 21.0
e 227 237 17.0
e 228 197 43.0
e 228 44 45.0
e 228 158 1.0
e 228 28 1.0
e 228 38 38.0
e 228 56 1.0
e 228 147 15.0
e 228 43 10.0
e 229 238 1.0
e 229 239 1.0
e 229 135 1.0
e 229 89 1.0
e 229 66 1.0
e 229 77 1.0
e 229 197 28.0
e 229 269 19.0
e 230 82 8.0
e 230 112 27.0
e 230 37 41.0
e 230 150 13.0
e 230 9 1.0
e 230 271 1.0
e 230 317 22.0
e 230 288 1.0
e 231 72 1.0
e 231 209 1.0
e 231 268 1.0
e 231 309 1.0
e 231 61 4.0
e 231 71 1.0
e 231 288 1.0
e 231 200 13.0
e 232 264 18.0
e 232 75 18.0
e 232 10 12.0
e 232 214 48.0
e 232 102 49.0
e 232 124 38.0
e 232 88 15.0
e 232 285 44.0
e 233 282 1.0
e 233 42 1.0
e 233 166 15.0
e 233 257 1.0
e 233 318 1.0
e 233 191 1.0
e 233 39 13.0
e 233 301 1.0
e 234 213 2.0
e 234 303 1.0
e 234 232 40.0
e 234 68 2.0
e 234 199 2.0
e 234 170 1.0
e 234 135 1.0
e 234 310 2.0
e 235 257 1.0
e 235 219 1.0
e 235 230 1.0
e 235 46 1.0
e 235 161 1.0
e 235 25 1.0
e 235 36 1.0
e 235 187 1.0
e 236 47 2.0
e 236 84 1.0
e 236 79 2.0
e 236 266 1.0
e 236 264 1.0
e 236 35 1.0
e 236 251 2.0
e 236 314 1.0
e 237 305 22.0
e 237 22 21.0
e 237 60 40.0
e 237 0 10.0
e 237 171 30.0
e 237 125 22.0
e 237 244 24.0
e 237 196 5.0
e 238 97 1.0
e 238 37 13.0
e 238 242 1.0
e 238 273 1.0
e 238 25 1.0
e 238 32 1.0
e 238 169 22.0
e 238 225 1.0
e 239 88 1.0
e 239 255 1.0
e 239 147 31.0
e 239 192 2.0
e 239 114 1.0
e 239 33 8.0
e 239 64 1.0
e 240 41 2.0
e 240 40 2.0
e 240 123 1.0
e 240 215 2.0
e 240 103 2.0
e 240 27 1.0
e 240 314 2.0
e 240 24 1.0
e 241 31 1.0
e 241 197 3.0
e 241 318 1.0
e 241 124 1.0
e 241 171 1.0
e 241 161 1.0
e 241 146 46.0
e 241 190 1.0
e 242 48 2.0
e 242 41 1.0
e 242 146 43.0
e 242 273 1.0
e 242 134 1.0
e 242 32 1.0
e 242 43 38.0
e 242 136 1.0
e 243 81 8.0
e 243 159 33.0
e 243 312 23.0
e 243 293 7.0
e 243 179 38.0
e 243 254 35.0
e 243 199 12.0
e 243 235 20.0
e 244 0 47.0
e 244 214 16.0
e 244 120 1.0
e 244 86 4.0
e 244 189 1.0
e 244 60 1.0
e 244 181 1.0
e 245 216 1.0
e 245 119 1.0
e 245 59 38.0
e 245 252 43.0
e 245 246 1.0
e 245 114 1.0
e 245 17 1.0
e 245 16 30.0
e 246 175 1.0
e 246 186 1.0
e 246 271 1.0
e 246 22 10.0
e 246 10 2.0
e 246 21 1.0
e 246 162 1.0
e 246 288 1.0
e 247 188 1.0
e 247 149 1.0
e 247 208 1.0
e 247 91 8.0
e 247 310 1.0
e 247 182 1.0
e 247 185 22.0
e 247 161 1.0
e 248 3 6.0
e 248 19 42.0
e 248 226 1.0
e 248 314 1.0
e 248 136 1.0
e 248 1 1.0
e 248 107 39.0
e 249 16 7.0
e 249 95 1.0
e 249 311 1.0
e 249 190 1.0
e 249 135 1.0
e 249 49 41.0
e 249 202 26.0
e 249 184 1.0
e 250 29 9.0
e 250 178 1.0
e 250 38 24.0
e 250 186 1.0
e 250 142 1.0
e 250 207 1.0
e 250 208 1.0
e 250 143 1.0
e 251 8 1.0
e 251 86 23.0
e 251 181 1.0
e 251 234 2.0
e 251 82 9.0
e 251 309 1.0
e 251 98 1.0
e 251 170 1.0
e 252 43 19.0
e 252 198 31.0
e 252 191 37.0
e 252 136 39.0
e 252 239 47.0
e 252 92 34.0
e 252 151 5.0
e 253 271 37.0
e 253 20 39.0
e 253 201 47.0
e 253 90 5.0
e 253 212 23.0
e 253 180 24.0
e 253 13 44.0
e 253 258 24.0
e 254 8 1.0
e 254 185 47.0
e 254 237 15.0
e 254 283 1.0
e 254 182 1.0
e 254 129 1.0
e 254 252 7.0
e 255 8 1.0
e 255 34 2.0
e 255 21 2.0
e 255 150 36.0
e 255 80 1.0
e 255 289 1.0
e 255 279 1.0
e 256 51 43.0
e 256 189 7.0
e 256 186 38.0
e 256 268 20.0
e 256 65 24.0
e 256 176 3.0
e 256 0 38.0
e 256 303 36.0
e 257 167 1.0
e 257 225 1.0
e 257 37 23.0
e 257 162 1.0
e 257 153 1.0
e 257 198 4.0
e 257 99 1.0
e 258 274 1.0
e 258 92 1.0
e 258 0 6.0
e 258 20 1.0
e 258 200 16.0
e 258 316 1.0
e 258 306 1.0
e 258 9 1.0
e 259 294 1.0
e 259 196 19.0
e 259 156 1.0
e 259 52 1.0
e 259 155 2.0
e 259 144 1.0
e 259 296 1.0
e 259 265 1.0
e 260 74 31.0
e 260 167 40.0
e 260 51 31.0
e 260 44 6.0
e 260 72 17.0
e 260 254 15.0
e 260 34 11.0
e 260 266 38.0
e 261 252 9.0
e 261 130 35.0
e 261 309 10.0
e 261 318 14.0
e 261 100 17.0
e 261 127 49.0
e 261 300 36.0
e 262 270 17.0
e 262 2 1.0
e 262 264 16.0
e 262 179 43.0
e 262 23 34.0
e 262 102 24.0
e 262 168 44.0
e 262 121 33.0
e 263 209 1.0
e 263 192 2.0
e 263 55 1.0
e 263 248 1.0
e 263 301 1.0
e 263 217 3.0
e 263 177 1.0
e 264 41 1.0
e 264 313 2.0
e 264 108 1.0
e 264 178 1.0
e 264 196 6.0
e 264 229 1.0
e 264 76 1.0
e 265 260 41.0
e 265 255 2.0
e 265 221 38.0
e 265 102 1.0
e 265 123 1.0
e 265 316 1.0
e 265 48 3.0
e 265 306 1.0
e 266 37 8.0
e 266 167 1.0
e 266 257 1.0
e 266 125 29.0
e 266 60 1.0
e 266 93 1.0
e 266 75 24.0
e 266 123 1.0
e 267 316 1.0
e 267 300 5.0
e 267 121 1.0
e 267 119 1.0
e 267 94 1.0
e 267 269 45.0
e 267 157 43.0
e 267 289 1.0
e 268 133 1.0
e 268 6 1.0
e 268 287 1.0
e 268 89 1.0
e 268 192 2.0
e 268 43 33.0
e 268 229 1.0
e 268 224 1.0
e 269 233 17.0
e 269 109 22.0
e 269 54 21.0
e 269 223 18.0
e 269 228 13.0
e 269 44 30.0
e 269 89 18.0
e 269 81 18.0
e 270 115 14.0
e 270 170 1.0
e 270 185 15.0
e 270 130 23.0
e 270 65 1.0
e 270 99 1.0
e 270 230 1.0
e 270 257 1.0
e 271 115 24.0
e 271 51 1.0
e 271 227 44.0
e 271 98 1.0
e 271 84 2.0
e 271 109 13.0
e 271 106 1.0
e 272 112 20.0
e 272 102 1.0
e 272 20 1.0
e 272 219 1.0
e 272 235 1.0
e 272 178 1.0
e 272 94 1.0
e 273 313 2.0
e 273 308 1.0
e 273 211 21.0
e 273 168 1.0
e 273 312 10.0
e 273 306 1.0
e 273 222 1.0
e 273 45 1.0
e 274 244 1.0
e 274 56 1.0
e 274 39 5.0
e 274 156 1.0
e 274 269 37.0
e 274 51 1.0
e 274 272 1.0
e 275 71 1.0
e 275 16 29.0
e 275 264 1.0
e 275 96 1.0
e 275 219 1.0
e 275 238 1.0
e 275 246 2.0
e 275 315 6.0
e 276 117 1.0
e 276 194 1.0
e 276 70 6.0
e 276 202 2.0
e 276 275 1.0
e 276 177 1.0
e 276 51 1.0
e 276 268 1.0
e 277 4 1.0
e 277 303 3.0
e 277 48 1.0
e 277 100 1.0
e 277 230 1.0
e 277 292 32.0
e 277 266 1.0
e 277 120 1.0
e 278 241 1.0
e 278 208 1.0
e 278 131 1.0
e 278 280 1.0
e 278 18 1.0
e 278 84 1.0
e 278 260 28.0
e 278 118 1.0
e 279 63 1.0
e 279 267 1.0
e 279 204 1.0
e 279 257 1.0
e 279 163 40.0
e 279 160 1.0
e 279 44 19.0
e 280 291 43.0
e 280 3 10.0
e 280 208 1.0
e 280 144 2.0
e 280 7 1.0
e 280 253 29.0
e 280 306 1.0
e 280 266 1.0
e 281 59 11.0
e 281 179 1.0
e 281 298 1.0
e 281 88 1.0
e 281 71 1.0
e 281 141 18.0
e 281 121 1.0
e 281 123 1.0
e 282 51 1.0
e 282 291 38.0
e 282 317 11.0
e 282 26 1.0
e 282 140 27.0
e 282 204 1.0
e 282 198 1.0
e 282 39 1.0
e 283 297 5.0
e 283 275 1.0
e 283 270 1.0
e 283 19 28.0
e 283 132 1.0
e 283 91 34.0
e 283 317 32.0
e 283 286 1.0
e 284 296 1.0
e 284 32 1.0
e 284 25 1.0
e 284 23 1.0
e 284 230 1.0
e 284 82 5.0
e 284 222 1.0
e 284 53 33.0
e 285 13 1.0
e 285 109 30.0
e 285 108 1.0
e 285 12 1.0
e 285 236 2.0
e 285 166 25.0
e 285 243 5.0
e 285 314 1.0
e 286 221 10.0
e 286 224 1.0
e 286 91 11.0
e 286 80 1.0
e 286 205 1.0
e 286 182 1.0
e 286 304 2.0
e 286 201 1.0
e 287 272 1.0
e 287 179 1.0
e 287 149 1.0
e 287 297 32.0
e 287 273 1.0
e 287 20 1.0
e 287 182 1.0
e 287 309 1.0
e 288 74 37.0
e 288 44 8.0
e 288 174 1.0
e 288 75 27.0
e 288 315 1.0
e 288 110 1.0
e 288 285 1.0
e 288 43 4.0
e 289 209 1.0
e 289 175 2.0
e 289 208 1.0
e 289 20 1.0
e 289 174 1.0
e 289 215 1.0
e 289 229 1.0
e 289 292 3.0
e 290 246 2.0
e 290 21 1.0
e 290 114 1.0
e 290 138 1.0
e 290 113 1.0
e 290 173 1.0
e 290 193 1.0
e 291 43 49.0
e 291 308 16.0
e 291 297 46.0
e 291 318 45.0
e 291 79 48.0
e 291 238 23.0
e 291 288 16.0
e 291 310 28.0
e 292 285 35.0
e 292 14 19.0
e 292 232 13.0
e 292 55 11.0
e 292 168 13.0
e 292 164 27.0
e 292 247 12.0
e 292 265 14.0
e 293 61 23.0
e 293 222 1.0
e 293 40 1.0
e 293 27 1.0
e 293 132 1.0
e 293 249 1.0
e 293 205 1.0
e 293 180 1.0
e 294 16 33.0
e 294 222 1.0
e 294 261 17.0
e 294 276 1.0
e 294 11 1.0
e 294 58 1.0
e 294 0 49.0
e 294 300 17.0
e 295 103 1.0
e 295 137 1.0
e 295 284 1.0
e 295 40 1.0
e 295 214 38.0
e 295 190 1.0
e 295 233 1.0
e 295 229 1.0
e 296 3 30.0
e 296 270 1.0
e 296 214 42.0
e 296 274 1.0
e 296 298 1.0
e 296 186 1.0
e 296 163 29.0
e 296 113 1.0
e 297 11 2.0
e 297 67 27.0
e 297 218 2.0
e 297 197 28.0
e 297 106 26.0
e 297 33 3.0
e 297 295 39.0
e 298 213 1.0
e 298 88 1.0
e 298 287 1.0
e 298 318 1.0
e 298 105 1.0
e 298 182 1.0
e 298 4 1.0
e 298 202 34.0
e 299 17 1.0
e 299 279 1.0
e 299 183 1.0
e 299 20 1.0
e 299 119 1.0
e 299 159 1.0
e 299 43 15.0
e 299 162 1.0
e 300 198 20.0
e 300 173 5.0
e 300 272 16.0
e 300 212 35.0
e 300 210 42.0
e 300 6 44.0
e 300 265 29.0
e 300 47 31.0
e 301 251 1.0
e 301 129 1.0
e 301 18 1.0
e 301 212 1.0
e 301 257 1.0
e 301 14 1.0
e 301 288 1.0
e 301 316 1.0
e 302 196 17.0
e 302 248 45.0
e 302 206 6.0
e 302 218 12.0
e 302 265 29.0
e 302 264 11.0
e 302 142 1.0
e 302 219 25.0
e 303 132 1.0
e 303 135 1.0
e 303 299 2.0
e 303 50 1.0
e 303 181 1.0
e 303 310 1.0
e 303 204 2.0
e 303 199 1.0
e 304 50 1.0
e 304 142 2.0
e 304 244 2.0
e 304 48 1.0
e 304 266 2.0
e 304 132 1.0
e 304 284 1.0
e 304 144 1.0
e 305 56 1.0
e 305 137 3.0
e 305 259 1.0
e 305 206 2.0
e 305 234 2.0
e 305 285 1.0
e 305 266 2.0
e 305 310 1.0
e 306 67 1.0
e 306 260 6.0
e 306 159 1.0
e 306 17 1.0
e 306 108 1.0
e 306 172 1.0
e 306 168 1.0
e 306 90 1.0
e 307 236 1.0
e 307 314 1.0
e 307 70 32.0
e 307 274 1.0
e 307 104 6.0
e 307 207 1.0
e 307 204 1.0
e 307 315 3.0
e 308 29 25.0
e 308 230 1.0
e 308 107 7.0
e 308 159 1.0
e 308 246 1.0
e 308 116 1.0
e 308 44 5.0
e 308 282 1.0
e 309 125 27.0
e 309 211 43.0
e 309 10 1.0
e 309 310 1.0
e 309 227 24.0
e 309 142 1.0
e 309 301 1.0
e 309 292 43.0
e 310 193 1.0
e 310 130 43.0
e 310 46 1.0
e 310 207 1.0
e 310 180 1.0
e 310 235 1.0
e 310 169 28.0
e 310 80 1.0
e 311 23 1.0
e 311 19 34.0
e 311 65 1.0
e 311 79 1.0
e 311 72 1.0
e 311 70 44.0
e 311 270 1.0
e 311 75 35.0
e 312 164 45.0
e 312 290 18.0
e 312 27 13.0
e 312 228 42.0
e 312 58 37.0
e 312 80 19.0
e 312 298 20.0
e 313 188 1.0
e 313 57 12.0
e 313 21 1.0
e 313 309 1.0
e 313 118 1.0
e 313 158 1.0
e 313 149 2.0
e 313 121 1.0
e 314 213 1.0
e 314 288 1.0
e 314 166 28.0
e 314 263 1.0
e 314 132 1.0
e 314 101 1.0
e 314 306 1.0
e 314 122 1.0
e 315 77 32.0
e 315 13 25.0
e 315 18 1.0
e 315 174 20.0
e 315 287 9.0
e 315 200 17.0
e 315 208 16.0
e 315 250 47.0
e 316 67 1.0
e 316 129 1.0
e 316 268 1.0
e 316 190 1.0
e 316 282 1.0
e 316 55 1.0
e 316 120 1.0
e 316 149 1.0
e 317 126 1.0
e 317 310 26.0
e 317 284 49.0
e 317 97 2.0
e 317 273 44.0
e 317 58 21.0
e 317 290 34.0
e 317 55 32.0
e 318 169 22.0
e 318 177 1.0
e 318 194 1.0
e 318 264 1.0
e 318 179 1.0
e 318 67 1.0
e 318 162 1.0
e 318 236 1.0
e 319 159 1.0
e 319 249 1.0
e 319 221 16.0
e 319 295 1.0
e 319 110 1.0
e 319 223 11.0
e 319 181 1.0
e 319 127 1.0
